(set-logic QF_LRA)
(declare-fun T1 () Real )
(declare-fun T2 () Real )
(declare-fun T3 () Real )
(declare-fun T4 () Real )
(declare-fun T5 () Real )
(declare-fun T6 () Real )
(declare-fun Z () Real )
(assert ( and 
(or ( <= ( + T1 94 ) T2 ) ( <= ( + T2 27 ) T1 ) )
(or ( <= ( + T1 168 )  ( + T2 27 ) ) ( <= ( + T2 127 )( + T1 94 ) ) )
(or ( <= ( + T1 227 )  ( + T2 127 ) ) ( <= ( + T2 134 )( + T1 168 ) ) )
(or ( <= ( + T1 306 )  ( + T2 134 ) ) ( <= ( + T2 137 )( + T1 227 ) ) )
(or ( <= ( + T1 353 )  ( + T2 137 ) ) ( <= ( + T2 188 )( + T1 306 ) ) )
(or ( <= ( + T1 411 )  ( + T2 188 ) ) ( <= ( + T2 227 )( + T1 353 ) ) )
(or ( <= ( + T1 449 )  ( + T2 227 ) ) ( <= ( + T2 308 )( + T1 411 ) ) )
(or ( <= ( + T1 492 )  ( + T2 308 ) ) ( <= ( + T2 385 )( + T1 449 ) ) )
(or ( <= ( + T1 94 ) T3 ) ( <= ( + T3 11 ) T1 ) )
(or ( <= ( + T1 168 )  ( + T3 11 ) ) ( <= ( + T3 26 )( + T1 94 ) ) )
(or ( <= ( + T1 227 )  ( + T3 26 ) ) ( <= ( + T3 83 )( + T1 168 ) ) )
(or ( <= ( + T1 306 )  ( + T3 83 ) ) ( <= ( + T3 116 )( + T1 227 ) ) )
(or ( <= ( + T1 353 )  ( + T3 116 ) ) ( <= ( + T3 193 )( + T1 306 ) ) )
(or ( <= ( + T1 411 )  ( + T3 193 ) ) ( <= ( + T3 234 )( + T1 353 ) ) )
(or ( <= ( + T1 449 )  ( + T3 234 ) ) ( <= ( + T3 263 )( + T1 411 ) ) )
(or ( <= ( + T1 492 )  ( + T3 263 ) ) ( <= ( + T3 352 )( + T1 449 ) ) )
(or ( <= ( + T1 94 ) T4 ) ( <= ( + T4 55 ) T1 ) )
(or ( <= ( + T1 168 )  ( + T4 55 ) ) ( <= ( + T4 83 )( + T1 94 ) ) )
(or ( <= ( + T1 227 )  ( + T4 83 ) ) ( <= ( + T4 160 )( + T1 168 ) ) )
(or ( <= ( + T1 306 )  ( + T4 160 ) ) ( <= ( + T4 177 )( + T1 227 ) ) )
(or ( <= ( + T1 353 )  ( + T4 177 ) ) ( <= ( + T4 180 )( + T1 306 ) ) )
(or ( <= ( + T1 411 )  ( + T4 180 ) ) ( <= ( + T4 203 )( + T1 353 ) ) )
(or ( <= ( + T1 449 )  ( + T4 203 ) ) ( <= ( + T4 216 )( + T1 411 ) ) )
(or ( <= ( + T1 492 )  ( + T4 216 ) ) ( <= ( + T4 313 )( + T1 449 ) ) )
(or ( <= ( + T1 94 ) T5 ) ( <= ( + T5 96 ) T1 ) )
(or ( <= ( + T1 168 )  ( + T5 96 ) ) ( <= ( + T5 167 )( + T1 94 ) ) )
(or ( <= ( + T1 227 )  ( + T5 167 ) ) ( <= ( + T5 194 )( + T1 168 ) ) )
(or ( <= ( + T1 306 )  ( + T5 194 ) ) ( <= ( + T5 288 )( + T1 227 ) ) )
(or ( <= ( + T1 353 )  ( + T5 288 ) ) ( <= ( + T5 368 )( + T1 306 ) ) )
(or ( <= ( + T1 411 )  ( + T5 368 ) ) ( <= ( + T5 433 )( + T1 353 ) ) )
(or ( <= ( + T1 449 )  ( + T5 433 ) ) ( <= ( + T5 469 )( + T1 411 ) ) )
(or ( <= ( + T1 492 )  ( + T5 469 ) ) ( <= ( + T5 527 )( + T1 449 ) ) )
(or ( <= ( + T1 94 ) T6 ) ( <= ( + T6 16 ) T1 ) )
(or ( <= ( + T1 168 )  ( + T6 16 ) ) ( <= ( + T6 110 )( + T1 94 ) ) )
(or ( <= ( + T1 227 )  ( + T6 110 ) ) ( <= ( + T6 171 )( + T1 168 ) ) )
(or ( <= ( + T1 306 )  ( + T6 171 ) ) ( <= ( + T6 237 )( + T1 227 ) ) )
(or ( <= ( + T1 353 )  ( + T6 237 ) ) ( <= ( + T6 321 )( + T1 306 ) ) )
(or ( <= ( + T1 411 )  ( + T6 321 ) ) ( <= ( + T6 362 )( + T1 353 ) ) )
(or ( <= ( + T1 449 )  ( + T6 362 ) ) ( <= ( + T6 404 )( + T1 411 ) ) )
(or ( <= ( + T1 492 )  ( + T6 404 ) ) ( <= ( + T6 498 )( + T1 449 ) ) )
(or ( <= ( + T2 27 ) T3 ) ( <= ( + T3 11 ) T2 ) )
(or ( <= ( + T2 127 )  ( + T3 11 ) ) ( <= ( + T3 26 )( + T2 27 ) ) )
(or ( <= ( + T2 134 )  ( + T3 26 ) ) ( <= ( + T3 83 )( + T2 127 ) ) )
(or ( <= ( + T2 137 )  ( + T3 83 ) ) ( <= ( + T3 116 )( + T2 134 ) ) )
(or ( <= ( + T2 188 )  ( + T3 116 ) ) ( <= ( + T3 193 )( + T2 137 ) ) )
(or ( <= ( + T2 227 )  ( + T3 193 ) ) ( <= ( + T3 234 )( + T2 188 ) ) )
(or ( <= ( + T2 308 )  ( + T3 234 ) ) ( <= ( + T3 263 )( + T2 227 ) ) )
(or ( <= ( + T2 385 )  ( + T3 263 ) ) ( <= ( + T3 352 )( + T2 308 ) ) )
(or ( <= ( + T2 27 ) T4 ) ( <= ( + T4 55 ) T2 ) )
(or ( <= ( + T2 127 )  ( + T4 55 ) ) ( <= ( + T4 83 )( + T2 27 ) ) )
(or ( <= ( + T2 134 )  ( + T4 83 ) ) ( <= ( + T4 160 )( + T2 127 ) ) )
(or ( <= ( + T2 137 )  ( + T4 160 ) ) ( <= ( + T4 177 )( + T2 134 ) ) )
(or ( <= ( + T2 188 )  ( + T4 177 ) ) ( <= ( + T4 180 )( + T2 137 ) ) )
(or ( <= ( + T2 227 )  ( + T4 180 ) ) ( <= ( + T4 203 )( + T2 188 ) ) )
(or ( <= ( + T2 308 )  ( + T4 203 ) ) ( <= ( + T4 216 )( + T2 227 ) ) )
(or ( <= ( + T2 385 )  ( + T4 216 ) ) ( <= ( + T4 313 )( + T2 308 ) ) )
(or ( <= ( + T2 27 ) T5 ) ( <= ( + T5 96 ) T2 ) )
(or ( <= ( + T2 127 )  ( + T5 96 ) ) ( <= ( + T5 167 )( + T2 27 ) ) )
(or ( <= ( + T2 134 )  ( + T5 167 ) ) ( <= ( + T5 194 )( + T2 127 ) ) )
(or ( <= ( + T2 137 )  ( + T5 194 ) ) ( <= ( + T5 288 )( + T2 134 ) ) )
(or ( <= ( + T2 188 )  ( + T5 288 ) ) ( <= ( + T5 368 )( + T2 137 ) ) )
(or ( <= ( + T2 227 )  ( + T5 368 ) ) ( <= ( + T5 433 )( + T2 188 ) ) )
(or ( <= ( + T2 308 )  ( + T5 433 ) ) ( <= ( + T5 469 )( + T2 227 ) ) )
(or ( <= ( + T2 385 )  ( + T5 469 ) ) ( <= ( + T5 527 )( + T2 308 ) ) )
(or ( <= ( + T2 27 ) T6 ) ( <= ( + T6 16 ) T2 ) )
(or ( <= ( + T2 127 )  ( + T6 16 ) ) ( <= ( + T6 110 )( + T2 27 ) ) )
(or ( <= ( + T2 134 )  ( + T6 110 ) ) ( <= ( + T6 171 )( + T2 127 ) ) )
(or ( <= ( + T2 137 )  ( + T6 171 ) ) ( <= ( + T6 237 )( + T2 134 ) ) )
(or ( <= ( + T2 188 )  ( + T6 237 ) ) ( <= ( + T6 321 )( + T2 137 ) ) )
(or ( <= ( + T2 227 )  ( + T6 321 ) ) ( <= ( + T6 362 )( + T2 188 ) ) )
(or ( <= ( + T2 308 )  ( + T6 362 ) ) ( <= ( + T6 404 )( + T2 227 ) ) )
(or ( <= ( + T2 385 )  ( + T6 404 ) ) ( <= ( + T6 498 )( + T2 308 ) ) )
(or ( <= ( + T3 11 ) T4 ) ( <= ( + T4 55 ) T3 ) )
(or ( <= ( + T3 26 )  ( + T4 55 ) ) ( <= ( + T4 83 )( + T3 11 ) ) )
(or ( <= ( + T3 83 )  ( + T4 83 ) ) ( <= ( + T4 160 )( + T3 26 ) ) )
(or ( <= ( + T3 116 )  ( + T4 160 ) ) ( <= ( + T4 177 )( + T3 83 ) ) )
(or ( <= ( + T3 193 )  ( + T4 177 ) ) ( <= ( + T4 180 )( + T3 116 ) ) )
(or ( <= ( + T3 234 )  ( + T4 180 ) ) ( <= ( + T4 203 )( + T3 193 ) ) )
(or ( <= ( + T3 263 )  ( + T4 203 ) ) ( <= ( + T4 216 )( + T3 234 ) ) )
(or ( <= ( + T3 352 )  ( + T4 216 ) ) ( <= ( + T4 313 )( + T3 263 ) ) )
(or ( <= ( + T3 11 ) T5 ) ( <= ( + T5 96 ) T3 ) )
(or ( <= ( + T3 26 )  ( + T5 96 ) ) ( <= ( + T5 167 )( + T3 11 ) ) )
(or ( <= ( + T3 83 )  ( + T5 167 ) ) ( <= ( + T5 194 )( + T3 26 ) ) )
(or ( <= ( + T3 116 )  ( + T5 194 ) ) ( <= ( + T5 288 )( + T3 83 ) ) )
(or ( <= ( + T3 193 )  ( + T5 288 ) ) ( <= ( + T5 368 )( + T3 116 ) ) )
(or ( <= ( + T3 234 )  ( + T5 368 ) ) ( <= ( + T5 433 )( + T3 193 ) ) )
(or ( <= ( + T3 263 )  ( + T5 433 ) ) ( <= ( + T5 469 )( + T3 234 ) ) )
(or ( <= ( + T3 352 )  ( + T5 469 ) ) ( <= ( + T5 527 )( + T3 263 ) ) )
(or ( <= ( + T3 11 ) T6 ) ( <= ( + T6 16 ) T3 ) )
(or ( <= ( + T3 26 )  ( + T6 16 ) ) ( <= ( + T6 110 )( + T3 11 ) ) )
(or ( <= ( + T3 83 )  ( + T6 110 ) ) ( <= ( + T6 171 )( + T3 26 ) ) )
(or ( <= ( + T3 116 )  ( + T6 171 ) ) ( <= ( + T6 237 )( + T3 83 ) ) )
(or ( <= ( + T3 193 )  ( + T6 237 ) ) ( <= ( + T6 321 )( + T3 116 ) ) )
(or ( <= ( + T3 234 )  ( + T6 321 ) ) ( <= ( + T6 362 )( + T3 193 ) ) )
(or ( <= ( + T3 263 )  ( + T6 362 ) ) ( <= ( + T6 404 )( + T3 234 ) ) )
(or ( <= ( + T3 352 )  ( + T6 404 ) ) ( <= ( + T6 498 )( + T3 263 ) ) )
(or ( <= ( + T4 55 ) T5 ) ( <= ( + T5 96 ) T4 ) )
(or ( <= ( + T4 83 )  ( + T5 96 ) ) ( <= ( + T5 167 )( + T4 55 ) ) )
(or ( <= ( + T4 160 )  ( + T5 167 ) ) ( <= ( + T5 194 )( + T4 83 ) ) )
(or ( <= ( + T4 177 )  ( + T5 194 ) ) ( <= ( + T5 288 )( + T4 160 ) ) )
(or ( <= ( + T4 180 )  ( + T5 288 ) ) ( <= ( + T5 368 )( + T4 177 ) ) )
(or ( <= ( + T4 203 )  ( + T5 368 ) ) ( <= ( + T5 433 )( + T4 180 ) ) )
(or ( <= ( + T4 216 )  ( + T5 433 ) ) ( <= ( + T5 469 )( + T4 203 ) ) )
(or ( <= ( + T4 313 )  ( + T5 469 ) ) ( <= ( + T5 527 )( + T4 216 ) ) )
(or ( <= ( + T4 55 ) T6 ) ( <= ( + T6 16 ) T4 ) )
(or ( <= ( + T4 83 )  ( + T6 16 ) ) ( <= ( + T6 110 )( + T4 55 ) ) )
(or ( <= ( + T4 160 )  ( + T6 110 ) ) ( <= ( + T6 171 )( + T4 83 ) ) )
(or ( <= ( + T4 177 )  ( + T6 171 ) ) ( <= ( + T6 237 )( + T4 160 ) ) )
(or ( <= ( + T4 180 )  ( + T6 237 ) ) ( <= ( + T6 321 )( + T4 177 ) ) )
(or ( <= ( + T4 203 )  ( + T6 321 ) ) ( <= ( + T6 362 )( + T4 180 ) ) )
(or ( <= ( + T4 216 )  ( + T6 362 ) ) ( <= ( + T6 404 )( + T4 203 ) ) )
(or ( <= ( + T4 313 )  ( + T6 404 ) ) ( <= ( + T6 498 )( + T4 216 ) ) )
(or ( <= ( + T5 96 ) T6 ) ( <= ( + T6 16 ) T5 ) )
(or ( <= ( + T5 167 )  ( + T6 16 ) ) ( <= ( + T6 110 )( + T5 96 ) ) )
(or ( <= ( + T5 194 )  ( + T6 110 ) ) ( <= ( + T6 171 )( + T5 167 ) ) )
(or ( <= ( + T5 288 )  ( + T6 171 ) ) ( <= ( + T6 237 )( + T5 194 ) ) )
(or ( <= ( + T5 368 )  ( + T6 237 ) ) ( <= ( + T6 321 )( + T5 288 ) ) )
(or ( <= ( + T5 433 )  ( + T6 321 ) ) ( <= ( + T6 362 )( + T5 368 ) ) )
(or ( <= ( + T5 469 )  ( + T6 362 ) ) ( <= ( + T6 404 )( + T5 433 ) ) )
(or ( <= ( + T5 527 )  ( + T6 404 ) ) ( <= ( + T6 498 )( + T5 469 ) ) )
( <= ( + T1 492 ) Z)
( <= ( + T2 385 ) Z)
( <= ( + T3 352 ) Z)
( <= ( + T4 313 ) Z)
( <= ( + T5 527 ) Z)
( <= ( + T6 498 ) Z)
( >= T1 0 )
( >= T2 0 )
( >= T3 0 )
( >= T4 0 )
( >= T5 0 )
( >= T6 0 )
) )
(minimize Z)
(check-sat)